c
c This is glucose-syrup 4.0 (glucose in many threads) --  based on MiniSAT (Many thanks to MiniSAT team)
c
c WARNING: for repeatability, setting FPU to use double precision
c ========================================[ Problem Statistics ]===========================================
c |                                                                                                       |
c |  Number of variables:          4328                                                                   |
c |  Number of clauses:          462645                                                                   |
c |  Parse time:                   0.18 s                                                                 |
c |                                                                                                       |
c |  Eliminated clauses:           0.00 Mb                                                                |
c |  Simplification time:          3.82 s                                                                 |
c |                                                                                                       |
c |  Automatic Adjustement of the number of solvers. MaxMemory=20000, MaxCores=  8.                       |
c |  One Solver is taking 57.68Mb... Let's take 8 solvers for this run (max 40% of the maxmemory).       |
c |  Generating clones                                                                                    |
c |  all clones generated. Memory = 260.84Mb.                                                             |
c ========================================================================================================|
c last restart ## conflicts  :  175 31 
c Thread 5 is 100% pure glucose! First thread to finish! (SAT answer).
c Total Memory so far : 856.98Mb
c
c real time : 5.50568 s
c cpu time  : 13.5856 s
c
c
c
c |---------------------------------------- FINAL STATS --------------------------------------------------|
c
c |---------------|-----------------|------------|------------|------------|------------|------------|------------|------------|------------|
c | Threads       |      Total      |          0 |          1 |          2 |          3 |          4 |          5 |          6 |          7 |
c |---------------|-----------------|------------|------------|------------|------------|------------|------------|------------|------------|
c | Conflicts     |          145899 |      23376 |      17458 |      17686 |      17336 |      18752 |      17343 |      16564 |      17384 |
c | Decisions     |         2352383 |     217905 |     340758 |     307642 |     315565 |     258537 |     287239 |     274561 |     350176 |
c | Propagations  |        10163697 |    1411757 |    1331999 |    1237417 |    1280460 |    1065257 |    1227933 |    1210652 |    1398222 |
c | Avg_Trail     |                 |       3199 |       3046 |       2917 |       2944 |       2929 |       2929 |       2967 |       2958 |
c | Avg_DL        |                 |        191 |        118 |        117 |        111 |        103 |        113 |        115 |        104 |
c | Avg_Res       |                 |          0 |          0 |          0 |          0 |          0 |          0 |          0 |          0 |
c | Avg_Res_Seen  |                 |          0 |          0 |          0 |          0 |          0 |          0 |          0 |          0 |
c |---------------|-----------------|------------|------------|------------|------------|------------|------------|------------|------------|
c | Exported      |           16486 |       3945 |       1584 |       1770 |       1726 |       1882 |       1926 |       1759 |       1894 |
c | Imported      |          114693 |      12527 |      14877 |      14655 |      14760 |      14580 |      14401 |      14358 |      14535 |
c | Good          |              98 |         13 |         13 |         12 |         12 |         12 |         12 |         12 |         12 |
c | Purge         |          114595 |      12514 |      14864 |      14643 |      14748 |      14568 |      14389 |      14346 |      14523 |
c | Promoted      |            5356 |        722 |        700 |        681 |        638 |        719 |        643 |        606 |        647 |
c | Remove_Imp    |            8227 |          0 |       1580 |       1070 |       1175 |        158 |        585 |       2112 |       1547 |
c | Blocked_Reuse |               0 |          0 |          0 |          0 |          0 |          0 |          0 |          0 |          0 |
c |---------------|-----------------|------------|------------|------------|------------|------------|------------|------------|------------|
c | Unaries       |                 |          0 |          1 |          0 |          0 |          1 |          0 |          1 |          0 |
c | Binaries      |                 |          1 |          1 |          2 |          2 |          2 |          2 |          2 |          2 |
c | Glues         |                 |        167 |         68 |         92 |        113 |        127 |         88 |         76 |        116 |
c |---------------|-----------------|------------|------------|------------|------------|------------|------------|------------|------------|
c | Orig_Seen     |             7 % |      41992 |      36084 |      34134 |      35164 |      35350 |      34471 |      32721 |      34207 |
c | Diff Orig seen|                 |       7521 |       1613 | -      337 |        693 |        879 |      X     | -     1750 | -      264 |
c | Hamming       |            17 % |        695 |        759 |        720 |        552 |        877 |      X     |        767 |        783 |
c |---------------|-----------------|------------|------------|------------|------------|------------|------------|------------|------------|

s SATISFIABLE
c
c This is glucose-syrup 4.0 (glucose in many threads) --  based on MiniSAT (Many thanks to MiniSAT team)
c
c WARNING: for repeatability, setting FPU to use double precision
c ========================================[ Problem Statistics ]===========================================
c |                                                                                                       |
c |  Number of variables:          4621                                                                   |
c |  Number of clauses:          600524                                                                   |
c |  Parse time:                   0.23 s                                                                 |
c |                                                                                                       |
c |  Eliminated clauses:           0.00 Mb                                                                |
c |  Simplification time:          5.67 s                                                                 |
c |                                                                                                       |
c |  Automatic Adjustement of the number of solvers. MaxMemory=20000, MaxCores=  8.                       |
c |  One Solver is taking 74.75Mb... Let's take 8 solvers for this run (max 40% of the maxmemory).       |
c |  Generating clones                                                                                    |
c |  all clones generated. Memory = 373.33Mb.                                                             |
c ========================================================================================================|
c last restart ## conflicts  :  761 64 
c Thread 1 is 100% pure glucose! First thread to finish! (SAT answer).
c Total Memory so far : 988.23Mb
c
c real time : 7.64792 s
c cpu time  : 16.9753 s
c
c
c
c |---------------------------------------- FINAL STATS --------------------------------------------------|
c
c |---------------|-----------------|------------|------------|------------|------------|------------|------------|------------|------------|
c | Threads       |      Total      |          0 |          1 |          2 |          3 |          4 |          5 |          6 |          7 |
c |---------------|-----------------|------------|------------|------------|------------|------------|------------|------------|------------|
c | Conflicts     |          194567 |      25240 |      22807 |      24044 |      26660 |      21645 |      25609 |      23601 |      24961 |
c | Decisions     |         2687657 |     438499 |     270077 |     359430 |     291624 |     389292 |     361064 |     285803 |     291868 |
c | Propagations  |        11258882 |    1718842 |    1260113 |    1568864 |    1278235 |    1431696 |    1399470 |    1331817 |    1269845 |
c | Avg_Trail     |                 |       2901 |       3307 |       3218 |       2978 |       3101 |       3196 |       3138 |       2992 |
c | Avg_DL        |                 |        199 |        194 |        190 |        177 |        199 |        179 |        194 |        176 |
c | Avg_Res       |                 |          0 |          0 |          0 |          0 |          0 |          0 |          0 |          0 |
c | Avg_Res_Seen  |                 |          0 |          0 |          0 |          0 |          0 |          0 |          0 |          0 |
c |---------------|-----------------|------------|------------|------------|------------|------------|------------|------------|------------|
c | Exported      |           24711 |       2952 |       2955 |       3296 |       3476 |       2367 |       3728 |       2933 |       3004 |
c | Imported      |          171321 |      21650 |      20915 |      21376 |      21149 |      22258 |      20846 |      21490 |      21637 |
c | Good          |              77 |         11 |          8 |         10 |         10 |         10 |         10 |          9 |          9 |
c | Purge         |          171244 |      21639 |      20907 |      21366 |      21139 |      22248 |      20836 |      21481 |      21628 |
c | Promoted      |            6220 |        724 |        636 |        862 |        819 |        758 |        858 |        687 |        876 |
c | Remove_Imp    |           38269 |       5371 |       2525 |       5868 |       3225 |       5130 |       4159 |       6606 |       5385 |
c | Blocked_Reuse |               0 |          0 |          0 |          0 |          0 |          0 |          0 |          0 |          0 |
c |---------------|-----------------|------------|------------|------------|------------|------------|------------|------------|------------|
c | Unaries       |                 |          0 |          0 |          1 |          0 |          0 |          1 |          0 |          1 |
c | Binaries      |                 |          0 |          3 |          1 |          1 |          1 |          1 |          2 |          2 |
c | Glues         |                 |        107 |        102 |        158 |        253 |        119 |        236 |         93 |        155 |
c |---------------|-----------------|------------|------------|------------|------------|------------|------------|------------|------------|
c | Orig_Seen     |             8 % |      48495 |      48570 |      49205 |      48167 |      44642 |      50399 |      48650 |      46949 |
c | Diff Orig seen|                 | -       75 |      X     |        635 | -      403 | -     3928 |       1829 |         80 | -     1621 |
c | Hamming       |            18 % |        933 |      X     |        857 |        771 |       1152 |        810 |        763 |        751 |
c |---------------|-----------------|------------|------------|------------|------------|------------|------------|------------|------------|

s SATISFIABLE
c
c This is glucose-syrup 4.0 (glucose in many threads) --  based on MiniSAT (Many thanks to MiniSAT team)
c
c WARNING: for repeatability, setting FPU to use double precision
c ========================================[ Problem Statistics ]===========================================
c |                                                                                                       |
c |  Number of variables:           356                                                                   |
c |  Number of clauses:           16895                                                                   |
c |  Parse time:                   0.01 s                                                                 |
c |                                                                                                       |
c |  Eliminated clauses:           0.00 Mb                                                                |
c |  Simplification time:          0.07 s                                                                 |
c |                                                                                                       |
c |  Automatic Adjustement of the number of solvers. MaxMemory=20000, MaxCores=  8.                       |
c |  One Solver is taking 14.89Mb... Let's take 8 solvers for this run (max 40% of the maxmemory).       |
c |  Generating clones                                                                                    |
c |  all clones generated. Memory =  28.54Mb.                                                             |
c ========================================================================================================|
c Thread 7 is 100% pure glucose! First thread to finish! (UNSAT answer).
c Total Memory so far : 563.93Mb
c
c real time : 1.83917 s
c cpu time  : 13.8512 s
c
c
c
c |---------------------------------------- FINAL STATS --------------------------------------------------|
c
c |---------------|-----------------|------------|------------|------------|------------|------------|------------|------------|------------|
c | Threads       |      Total      |          0 |          1 |          2 |          3 |          4 |          5 |          6 |          7 |
c |---------------|-----------------|------------|------------|------------|------------|------------|------------|------------|------------|
c | Conflicts     |          575474 |      67850 |      71139 |      71454 |      71919 |      73035 |      73807 |      72496 |      73774 |
c | Decisions     |          918049 |     109462 |     112307 |     115112 |     115972 |     118060 |     112708 |     116648 |     117780 |
c | Propagations  |        11150993 |    1312355 |    1342502 |    1405765 |    1410678 |    1428098 |    1439924 |    1405489 |    1406182 |
c | Avg_Trail     |                 |        219 |        226 |        222 |        225 |        229 |        221 |        223 |        225 |
c | Avg_DL        |                 |         20 |         22 |         21 |         22 |         22 |         20 |         22 |         21 |
c | Avg_Res       |                 |          0 |          0 |          0 |          0 |          0 |          0 |          0 |          0 |
c | Avg_Res_Seen  |                 |          0 |          0 |          0 |          0 |          0 |          0 |          0 |          0 |
c |---------------|-----------------|------------|------------|------------|------------|------------|------------|------------|------------|
c | Exported      |           98184 |      10890 |      12915 |      13193 |      11917 |      12826 |      11958 |      12124 |      12361 |
c | Imported      |          674960 |      85260 |      83273 |      79938 |      85967 |      84336 |      84311 |      86056 |      85819 |
c | Good          |             977 |        110 |        116 |        104 |        134 |        116 |         98 |        150 |        149 |
c | Purge         |          673983 |      85150 |      83157 |      79834 |      85833 |      84220 |      84213 |      85906 |      85670 |
c | Promoted      |           58764 |       7638 |       7617 |       7163 |       7793 |       7120 |       7017 |       7421 |       6995 |
c | Remove_Imp    |          390204 |      47004 |      48371 |      47643 |      51239 |      46864 |      50258 |      49977 |      48848 |
c | Blocked_Reuse |               0 |          0 |          0 |          0 |          0 |          0 |          0 |          0 |          0 |
c |---------------|-----------------|------------|------------|------------|------------|------------|------------|------------|------------|
c | Unaries       |                 |          2 |          2 |          2 |          3 |          2 |          3 |          6 |          5 |
c | Binaries      |                 |         16 |         10 |         23 |         23 |         18 |         29 |         31 |         32 |
c | Glues         |                 |        264 |        277 |        261 |        275 |        198 |        216 |        246 |        261 |
c |---------------|-----------------|------------|------------|------------|------------|------------|------------|------------|------------|
c | Orig_Seen     |            65 % |      10936 |      11062 |      11153 |      11030 |      11546 |      10482 |      11334 |      11563 |
c | Diff Orig seen|                 | -      627 | -      501 | -      410 | -      533 | -       17 | -     1081 | -      229 |      X     |
c | Hamming       |            18 % |         58 |         63 |        102 |         45 |         68 |         66 |         55 |      X     |
c |---------------|-----------------|------------|------------|------------|------------|------------|------------|------------|------------|

s UNSATISFIABLE
c
c This is glucose-syrup 4.0 (glucose in many threads) --  based on MiniSAT (Many thanks to MiniSAT team)
c
c WARNING: for repeatability, setting FPU to use double precision
c ========================================[ Problem Statistics ]===========================================
c |                                                                                                       |
c |  Number of variables:           401                                                                   |
c |  Number of clauses:           22972                                                                   |
c |  Parse time:                   0.01 s                                                                 |
c |                                                                                                       |
c |  Eliminated clauses:           0.00 Mb                                                                |
c |  Simplification time:          0.11 s                                                                 |
c |                                                                                                       |
c |  Automatic Adjustement of the number of solvers. MaxMemory=20000, MaxCores=  8.                       |
c |  One Solver is taking 15.75Mb... Let's take 8 solvers for this run (max 40% of the maxmemory).       |
c |  Generating clones                                                                                    |
c |  all clones generated. Memory =  32.41Mb.                                                             |
c ========================================================================================================|
c
c Try to adapt solver strategies
c 
c Nothing extreme in this problem, continue with glucose default strategies.
c
c
c Try to adapt solver strategies
c 
c Nothing extreme in this problem, continue with glucose default strategies.
c
c
c Try to adapt solver strategies
c 
c Nothing extreme in this problem, continue with glucose default strategies.
c
c
c Try to adapt solver strategies
c 
c Nothing extreme in this problem, continue with glucose default strategies.
c
c
c |-------------------------------------------------------------------------------------------------------|
c | id | starts | decisions  |  confls    |  Init T  |  learnts | exported | imported | promoted |    %   | 
c |-------------------------------------------------------------------------------------------------------|
c |  0 |    342 |     271076 |     159219 |    17226 |    45037 |    23527 |   168664 |    13573 | 18.704 |
c |  1 |    356 |     267282 |     154869 |    17091 |    40680 |    23724 |   167451 |    14134 | 18.704 |
c |  2 |    358 |     263746 |     149592 |    17363 |    35402 |    23504 |   168235 |    13921 | 18.704 |
c |  3 |    375 |     274144 |     159962 |    17353 |    45773 |    24135 |   167366 |    14305 | 18.704 |
c |  4 |    406 |     268894 |     157236 |    17048 |    43039 |    23832 |   168143 |    14818 | 18.704 |
c |  5 |    354 |     274364 |     159720 |    17215 |    45526 |    25545 |   164213 |    13493 | 18.705 |
c |  6 |    458 |     279643 |     161388 |    17315 |    47192 |    23203 |   168896 |    14055 | 18.704 |
c |  7 |    398 |     270906 |     155721 |    17003 |    41524 |    24742 |   166910 |    13157 | 18.705 |
c 
c synthesis     1257708 conflicts    25524938 propagations    33138 conflicts/sec   672521 propagations/sec
c Total Memory so far : 577.48Mb
c
c |-------------------------------------------------------------------------------------------------------|
c | id | starts | decisions  |  confls    |  Init T  |  learnts | exported | imported | promoted |    %   | 
c |-------------------------------------------------------------------------------------------------------|
c |  0 |    564 |     416986 |     262151 |    17500 |    63209 |    35629 |   235459 |    21980 | 25.936 |
c |  1 |    551 |     403591 |     251289 |    17311 |    52329 |    33638 |   237282 |    21982 | 25.940 |
c |  2 |    582 |     394466 |     242132 |    17538 |    43595 |    32233 |   237941 |    21397 | 25.936 |
c |  3 |    622 |     403653 |     252249 |    17512 |    53448 |    33469 |   235551 |    21712 | 25.943 |
c |  4 |    717 |     403406 |     250819 |    17263 |    51802 |    34434 |   234906 |    22466 | 25.936 |
c |  5 |    570 |     407495 |     254049 |    17475 |    55154 |    34621 |   236286 |    20803 | 25.941 |
c |  6 |    782 |     422918 |     261408 |    17529 |    62801 |    32710 |   236498 |    22472 | 25.936 |
c |  7 |    574 |     403142 |     250809 |    17199 |    51521 |    34393 |   236681 |    21197 | 25.936 |
c 
c synthesis     2024907 conflicts    45742973 propagations    26058 conflicts/sec   588652 propagations/sec
c Total Memory so far : 585.70Mb
c Thread 0 is 100% pure glucose! First thread to finish! (UNSAT answer).
c Total Memory so far : 592.79Mb
c
c real time : 14.8934 s
c cpu time  : 117.225 s
c
c
c
c |---------------------------------------- FINAL STATS --------------------------------------------------|
c
c |---------------|-----------------|------------|------------|------------|------------|------------|------------|------------|------------|
c | Threads       |      Total      |          0 |          1 |          2 |          3 |          4 |          5 |          6 |          7 |
c |---------------|-----------------|------------|------------|------------|------------|------------|------------|------------|------------|
c | Conflicts     |         2669983 |     340344 |     329604 |     323346 |     334781 |     330226 |     333031 |     352394 |     326257 |
c | Decisions     |         4091927 |     519047 |     503607 |     500750 |     510304 |     508303 |     509049 |     540159 |     500708 |
c | Propagations  |        63492880 |    8138631 |    7813113 |    7605443 |    7951842 |    7811254 |    7904938 |    8497435 |    7770224 |
c | Avg_Trail     |                 |        245 |        247 |        245 |        246 |        247 |        245 |        246 |        242 |
c | Avg_DL        |                 |         21 |         22 |         22 |         22 |         22 |         21 |         21 |         22 |
c | Avg_Res       |                 |          0 |          0 |          0 |          0 |          0 |          0 |          0 |          0 |
c | Avg_Res_Seen  |                 |          0 |          0 |          0 |          0 |          0 |          0 |          0 |          0 |
c |---------------|-----------------|------------|------------|------------|------------|------------|------------|------------|------------|
c | Exported      |          343476 |      43539 |      40611 |      42366 |      44264 |      44729 |      41283 |      43208 |      43476 |
c | Imported      |         2361550 |     299937 |     298290 |     297872 |     287706 |     293349 |     296085 |     294787 |     293524 |
c | Good          |             833 |        116 |        117 |        121 |         86 |        111 |         98 |         89 |         95 |
c | Purge         |         2360717 |     299821 |     298173 |     297751 |     287620 |     293238 |     295987 |     294698 |     293429 |
c | Promoted      |          226862 |      29349 |      28438 |      28541 |      28888 |      28671 |      26556 |      29468 |      26951 |
c | Remove_Imp    |         1587845 |     187485 |     199256 |     205382 |     192307 |     198107 |     197730 |     206810 |     200768 |
c | Blocked_Reuse |               0 |          0 |          0 |          0 |          0 |          0 |          0 |          0 |          0 |
c |---------------|-----------------|------------|------------|------------|------------|------------|------------|------------|------------|
c | Unaries       |                 |          5 |          2 |          2 |          0 |          3 |          3 |          3 |          1 |
c | Binaries      |                 |         46 |          9 |         16 |         11 |         10 |         20 |         32 |         18 |
c | Glues         |                 |        480 |        470 |        386 |        414 |        472 |        492 |        502 |        446 |
c |---------------|-----------------|------------|------------|------------|------------|------------|------------|------------|------------|
c | Orig_Seen     |            76 % |      17591 |      17402 |      17621 |      17604 |      17344 |      17562 |      17605 |      17273 |
c | Diff Orig seen|                 |      X     | -      189 |         30 |         13 | -      247 | -       29 |         14 | -      318 |
c | Hamming       |            20 % |      X     |         82 |         63 |         89 |         93 |         85 |         82 |         98 |
c |---------------|-----------------|------------|------------|------------|------------|------------|------------|------------|------------|

s UNSATISFIABLE
